n_machines = 3;
n_resources = 4;
n_jobs = 19;
horizon = 7810;
LB = 3477;
n_jobs_per_resource = [6, 3, 6, 4];
duration = [774, 666, 234, 223, 994, 586, 123, 128, 379, 297, 91, 347, 660, 480, 204, 220, 213, 873, 318]